Mn Ni Ga 
1.0000000000000000 
4.0907123600000004 0.0000000000000000 0.0000000000000000 
2.0453561818549333 3.5426608222640481 0.0000000000000000 
2.0453561762366230 1.1808869396528403 3.3400526460717019 
Mn Ni Ga 
1 2 1 
Cartesian 
4.0907123590457788 2.3617738809584443 1.6700263230358510 
2.0453561795228894 1.1808869404792222 0.8350131615179255 
6.1360685385686677 3.5426608214376660 2.5050394845537767 
0.0000000000000000 0.0000000000000000 0.0000000000000000
